out/bwp_4_13_1_lp.out
13
2 0    2 0
0 3    0 3
1 3    1 3
3 4    3 4
0 12    1 12
2 12    3 12
0 -0    0 2
1 -0    1 2
3 -0    3 2
2 1    2 3
0 4    2 4
-0 5    1 11
2 5    3 11
