out/bwp_4_13_1_lp.log
Tried aggregator 2 times.
MIP Presolve eliminated 19 rows and 7 columns.
MIP Presolve modified 342 coefficients.
Aggregator did 342 substitutions.
Reduced MIP has 1724 rows, 1564 columns, and 4253 nonzeros.
Reduced MIP has 943 binaries, 27 generals, 0 SOSs, and 312 indicators.
Presolve time = 0.01 sec. (5.24 ticks)
Found incumbent of value 37.000000 after 0.04 sec. (15.55 ticks)
Probing fixed 54 vars, tightened 262 bounds.
Probing time = 0.08 sec. (24.82 ticks)
Tried aggregator 3 times.
MIP Presolve eliminated 84 rows and 83 columns.
MIP Presolve modified 776 coefficients.
Aggregator did 571 substitutions.
Reduced MIP has 1069 rows, 910 columns, and 3118 nonzeros.
Reduced MIP has 726 binaries, 114 generals, 0 SOSs, and 276 indicators.
Presolve time = 0.02 sec. (7.03 ticks)
Probing time = 0.01 sec. (5.60 ticks)
Tried aggregator 1 time.
Reduced MIP has 1069 rows, 910 columns, and 3118 nonzeros.
Reduced MIP has 726 binaries, 114 generals, 0 SOSs, and 276 indicators.
Presolve time = 0.00 sec. (1.59 ticks)
Probing time = 0.01 sec. (2.19 ticks)
Clique table members: 659.
MIP emphasis: balance optimality and feasibility.
MIP search method: dynamic search.
Parallel mode: deterministic, using up to 4 threads.
Root relaxation solution time = 0.01 sec. (3.61 ticks)

        Nodes                                         Cuts/
   Node  Left     Objective  IInf  Best Integer    Best Bound    ItCnt     Gap

*     0+    0                           37.0000       13.0000      370   64.86%
      0     0       13.0000   345       37.0000       13.0000      370   64.86%
      0     0       13.0000   243       37.0000      Cuts: 68      448   64.86%
      0     0       13.0000   218       37.0000     Cuts: 169      593   64.86%
      0     0       13.0000   185       37.0000      Cuts: 70      660   64.86%
      0     0       13.0000   159       37.0000      Cuts: 37      696   64.86%
      0     0       13.0000   150       37.0000      Cuts: 31      743   64.86%

Repeating presolve.
Tried aggregator 2 times.
MIP Presolve eliminated 388 rows and 321 columns.
MIP Presolve modified 431 coefficients.
Aggregator did 16 substitutions.
Reduced MIP has 665 rows, 573 columns, and 2030 nonzeros.
Reduced MIP has 405 binaries, 101 generals, 0 SOSs, and 276 indicators.
Presolve time = 0.01 sec. (3.98 ticks)
Probing fixed 0 vars, tightened 32 bounds.
Probing time = 0.01 sec. (3.00 ticks)
Tried aggregator 1 time.
MIP Presolve modified 67 coefficients.
Reduced MIP has 665 rows, 573 columns, and 2030 nonzeros.
Reduced MIP has 405 binaries, 101 generals, 0 SOSs, and 276 indicators.
Presolve time = 0.00 sec. (1.05 ticks)
Represolve time = 0.03 sec. (9.69 ticks)
Probing time = 0.01 sec. (2.07 ticks)
Clique table members: 216.
MIP emphasis: balance optimality and feasibility.
MIP search method: dynamic search.
Parallel mode: deterministic, using up to 4 threads.
Root relaxation solution time = 0.01 sec. (3.13 ticks)

        Nodes                                         Cuts/
   Node  Left     Objective  IInf  Best Integer    Best Bound    ItCnt     Gap

*     0+    0                           37.0000       13.0000      978   64.86%
      0     0       13.0000   272       37.0000       13.0000      978   64.86%
      0     0       13.0000    62       37.0000      Cuts: 31     1007   64.86%
      0     0       13.0000    97       37.0000      Cuts: 52     1084   64.86%
      0     0       13.0000   111       37.0000      Cuts: 62     1123   64.86%
*     0+    0                           15.0000       13.0000     1123   13.33%
      0     2       13.0000    38       15.0000       13.0000     1123   13.33%
Elapsed time = 0.65 sec. (220.65 ticks, tree = 0.01 MB, solutions = 2)
*   135+  117                           14.0000       13.0000     3038    7.14%
*   180+   95                           13.0000       13.0000     3338    0.00%

Clique cuts applied:  12
Cover cuts applied:  8
Implied bound cuts applied:  71
Flow cuts applied:  2
Mixed integer rounding cuts applied:  8
Zero-half cuts applied:  13
Gomory fractional cuts applied:  5

Root node processing (before b&c):
  Real time             =    0.65 sec. (220.38 ticks)
Parallel b&c, 4 threads:
  Real time             =    0.08 sec. (34.62 ticks)
  Sync time (average)   =    0.02 sec.
  Wait time (average)   =    0.00 sec.
                          ------------
Total (root+branch&cut) =    0.73 sec. (255.00 ticks)
